c description: Random 2-CNF over 15 variables and 65 clauses
c generator: CNFgen (0.9.0)
c copyright: (C) 2012-2020 Massimo Lauria <massimo.lauria@uniroma1.it>
c url: https://massimolauria.net/cnfgen
c
p cnf 15 65
3 5 0
3 14 0
-6 -7 0
-2 -8 0
-2 4 0
12 13 0
6 -13 0
9 13 0
-6 -11 0
8 -13 0
3 -7 0
-4 -8 0
2 -15 0
2 10 0
4 5 0
7 -14 0
-1 13 0
1 -10 0
3 13 0
3 -4 0
13 -15 0
-6 -10 0
10 -12 0
1 4 0
2 -3 0
5 13 0
2 -5 0
5 -7 0
-9 13 0
9 10 0
-6 14 0
6 -7 0
-3 -14 0
-2 8 0
8 9 0
-1 4 0
8 12 0
8 11 0
3 -5 0
-8 14 0
8 -12 0
13 14 0
-7 9 0
7 -8 0
4 13 0
5 7 0
-1 -10 0
-3 -13 0
-7 -9 0
1 13 0
-2 5 0
7 -10 0
-1 12 0
-2 -11 0
6 -9 0
1 10 0
2 8 0
4 -8 0
8 -11 0
4 -5 0
-4 14 0
-9 -14 0
1 8 0
3 -9 0
-4 -9 0